p cnf 965 2478
51 -698 -699 0
-51 698 0
-51 699 0
52 -51 -700 0
-52 51 0
-52 700 0
53 -5 -701 0
-53 5 0
-53 701 0
54 -53 -6 0
-54 53 0
-54 6 0
55 -702 -703 0
-55 702 0
-55 703 0
56 -704 -7 0
-56 704 0
-56 7 0
57 -56 -9 0
-57 56 0
-57 9 0
58 -705 -55 0
-58 705 0
-58 55 0
59 -706 -707 0
-59 706 0
-59 707 0
60 -59 -11 0
-60 59 0
-60 11 0
61 -708 -58 0
-61 708 0
-61 58 0
62 -8 -707 0
-62 8 0
-62 707 0
63 -62 -1 0
-63 62 0
-63 1 0
64 -709 -61 0
-64 709 0
-64 61 0
65 -12 -11 0
-65 12 0
-65 11 0
66 -65 -13 0
-66 65 0
-66 13 0
67 -710 -64 0
-67 710 0
-67 64 0
68 -14 -4 0
-68 14 0
-68 4 0
69 -68 -711 0
-69 68 0
-69 711 0
70 -712 -67 0
-70 712 0
-70 67 0
71 -713 -3 0
-71 713 0
-71 3 0
72 -71 -714 0
-72 71 0
-72 714 0
73 -715 -70 0
-73 715 0
-73 70 0
74 -17 -699 0
-74 17 0
-74 699 0
75 -74 -18 0
-75 74 0
-75 18 0
76 -716 -73 0
-76 716 0
-76 73 0
77 -12 -8 0
-77 12 0
-77 8 0
78 -77 -19 0
-78 77 0
-78 19 0
79 -717 -76 0
-79 717 0
-79 76 0
80 -20 -11 0
-80 20 0
-80 11 0
81 -80 -21 0
-81 80 0
-81 21 0
82 -718 -79 0
-82 718 0
-82 79 0
83 -23 -719 0
-83 23 0
-83 719 0
84 -83 -720 0
-84 83 0
-84 720 0
85 -721 -82 0
-85 721 0
-85 82 0
86 -25 -711 0
-86 25 0
-86 711 0
87 -86 -19 0
-87 86 0
-87 19 0
88 -722 -85 0
-88 722 0
-88 85 0
89 -719 -5 0
-89 719 0
-89 5 0
90 -89 -723 0
-90 89 0
-90 723 0
91 -724 -88 0
-91 724 0
-91 88 0
92 -28 -725 0
-92 28 0
-92 725 0
93 -92 -11 0
-93 92 0
-93 11 0
94 -726 -91 0
-94 726 0
-94 91 0
95 -29 -706 0
-95 29 0
-95 706 0
96 -95 -727 0
-96 95 0
-96 727 0
97 -728 -94 0
-97 728 0
-97 94 0
98 -30 -6 0
-98 30 0
-98 6 0
99 -98 -729 0
-99 98 0
-99 729 0
100 -730 -97 0
-100 730 0
-100 97 0
101 -731 -5 0
-101 731 0
-101 5 0
102 -101 -732 0
-102 101 0
-102 732 0
103 -733 -100 0
-103 733 0
-103 100 0
104 -734 -735 0
-104 734 0
-104 735 0
105 -104 -34 0
-105 104 0
-105 34 0
106 -736 -103 0
-106 736 0
-106 103 0
107 -737 -35 0
-107 737 0
-107 35 0
108 -107 -732 0
-108 107 0
-108 732 0
109 -738 -106 0
-109 738 0
-109 106 0
110 -19 -13 0
-110 19 0
-110 13 0
111 -110 -3 0
-111 110 0
-111 3 0
112 -739 -109 0
-112 739 0
-112 109 0
113 -37 -740 0
-113 37 0
-113 740 0
114 -113 -741 0
-114 113 0
-114 741 0
115 -742 -112 0
-115 742 0
-115 112 0
116 -6 -701 0
-116 6 0
-116 701 0
117 -116 -25 0
-117 116 0
-117 25 0
118 -743 -115 0
-118 743 0
-118 115 0
119 -38 -25 0
-119 38 0
-119 25 0
120 -119 -744 0
-120 119 0
-120 744 0
121 -745 -118 0
-121 745 0
-121 118 0
122 -20 -14 0
-122 20 0
-122 14 0
123 -122 -698 0
-123 122 0
-123 698 0
124 -746 -121 0
-124 746 0
-124 121 0
125 -747 -748 0
-125 747 0
-125 748 0
126 -125 -749 0
-126 125 0
-126 749 0
127 -750 -124 0
-127 750 0
-127 124 0
128 -28 -707 0
-128 28 0
-128 707 0
129 -128 -21 0
-129 128 0
-129 21 0
130 -751 -127 0
-130 751 0
-130 127 0
131 -42 -10 0
-131 42 0
-131 10 0
132 -131 -752 0
-132 131 0
-132 752 0
133 -753 -130 0
-133 753 0
-133 130 0
134 -35 -7 0
-134 35 0
-134 7 0
135 -134 -748 0
-135 134 0
-135 748 0
136 -754 -133 0
-136 754 0
-136 133 0
137 -755 -9 0
-137 755 0
-137 9 0
138 -137 -32 0
-138 137 0
-138 32 0
139 -756 -136 0
-139 756 0
-139 136 0
140 -43 -34 0
-140 43 0
-140 34 0
141 -140 -720 0
-141 140 0
-141 720 0
142 -757 -139 0
-142 757 0
-142 139 0
143 -28 -758 0
-143 28 0
-143 758 0
144 -143 -759 0
-144 143 0
-144 759 0
145 -760 -142 0
-145 760 0
-145 142 0
146 -761 -31 0
-146 761 0
-146 31 0
147 -146 -729 0
-147 146 0
-147 729 0
148 -762 -145 0
-148 762 0
-148 145 0
149 -763 -704 0
-149 763 0
-149 704 0
150 -149 -699 0
-150 149 0
-150 699 0
151 -764 -148 0
-151 764 0
-151 148 0
152 -749 -29 0
-152 749 0
-152 29 0
153 -152 -13 0
-153 152 0
-153 13 0
154 -765 -151 0
-154 765 0
-154 151 0
155 -42 -747 0
-155 42 0
-155 747 0
156 -155 -45 0
-156 155 0
-156 45 0
157 -766 -154 0
-157 766 0
-157 154 0
158 -767 -31 0
-158 767 0
-158 31 0
159 -158 -41 0
-159 158 0
-159 41 0
160 -768 -157 0
-160 768 0
-160 157 0
161 -731 -7 0
-161 731 0
-161 7 0
162 -161 -763 0
-162 161 0
-162 763 0
163 -769 -160 0
-163 769 0
-163 160 0
164 -734 -14 0
-164 734 0
-164 14 0
165 -164 -770 0
-165 164 0
-165 770 0
166 -771 -163 0
-166 771 0
-166 163 0
167 -719 -772 0
-167 719 0
-167 772 0
168 -167 -727 0
-168 167 0
-168 727 0
169 -773 -166 0
-169 773 0
-169 166 0
170 -7 -758 0
-170 7 0
-170 758 0
171 -170 -759 0
-171 170 0
-171 759 0
172 -774 -169 0
-172 774 0
-172 169 0
173 -35 -29 0
-173 35 0
-173 29 0
174 -173 -34 0
-174 173 0
-174 34 0
175 -775 -172 0
-175 775 0
-175 172 0
176 -749 -18 0
-176 749 0
-176 18 0
177 -176 -36 0
-177 176 0
-177 36 0
178 -776 -175 0
-178 776 0
-178 175 0
179 -31 -711 0
-179 31 0
-179 711 0
180 -179 -22 0
-180 179 0
-180 22 0
181 -777 -178 0
-181 777 0
-181 178 0
182 -778 -704 0
-182 778 0
-182 704 0
183 -182 -28 0
-183 182 0
-183 28 0
184 -779 -181 0
-184 779 0
-184 181 0
185 -19 -780 0
-185 19 0
-185 780 0
186 -185 -16 0
-186 185 0
-186 16 0
187 -781 -184 0
-187 781 0
-187 184 0
188 -43 -767 0
-188 43 0
-188 767 0
189 -188 -770 0
-189 188 0
-189 770 0
190 -782 -187 0
-190 782 0
-190 187 0
191 -46 -783 0
-191 46 0
-191 783 0
192 -191 -36 0
-192 191 0
-192 36 0
193 -784 -190 0
-193 784 0
-193 190 0
194 -41 -719 0
-194 41 0
-194 719 0
195 -194 -732 0
-195 194 0
-195 732 0
196 -785 -193 0
-196 785 0
-196 193 0
197 -47 -9 0
-197 47 0
-197 9 0
198 -197 -741 0
-198 197 0
-198 741 0
199 -786 -196 0
-199 786 0
-199 196 0
200 -39 -720 0
-200 39 0
-200 720 0
201 -200 -36 0
-201 200 0
-201 36 0
202 -787 -199 0
-202 787 0
-202 199 0
203 -48 -749 0
-203 48 0
-203 749 0
204 -203 -788 0
-204 203 0
-204 788 0
205 -789 -202 0
-205 789 0
-205 202 0
206 -790 -39 0
-206 790 0
-206 39 0
207 -206 -13 0
-207 206 0
-207 13 0
208 -791 -205 0
-208 791 0
-208 205 0
209 -761 -734 0
-209 761 0
-209 734 0
210 -209 -9 0
-210 209 0
-210 9 0
211 -792 -208 0
-211 792 0
-211 208 0
212 -28 -729 0
-212 28 0
-212 729 0
213 -212 -749 0
-213 212 0
-213 749 0
214 -793 -211 0
-214 793 0
-214 211 0
215 -731 -4 0
-215 731 0
-215 4 0
216 -215 -727 0
-216 215 0
-216 727 0
217 -794 -214 0
-217 794 0
-217 214 0
218 -17 -752 0
-218 17 0
-218 752 0
219 -218 -3 0
-219 218 0
-219 3 0
220 -795 -217 0
-220 795 0
-220 217 0
221 -19 -759 0
-221 19 0
-221 759 0
222 -221 -720 0
-222 221 0
-222 720 0
223 -796 -220 0
-223 796 0
-223 220 0
224 -749 -747 0
-224 749 0
-224 747 0
225 -224 -23 0
-225 224 0
-225 23 0
226 -797 -223 0
-226 797 0
-226 223 0
227 -723 -19 0
-227 723 0
-227 19 0
228 -227 -46 0
-228 227 0
-228 46 0
229 -798 -226 0
-229 798 0
-229 226 0
230 -737 -704 0
-230 737 0
-230 704 0
231 -230 -3 0
-231 230 0
-231 3 0
232 -799 -229 0
-232 799 0
-232 229 0
233 -732 -28 0
-233 732 0
-233 28 0
234 -233 -45 0
-234 233 0
-234 45 0
235 -800 -232 0
-235 800 0
-235 232 0
236 -723 -741 0
-236 723 0
-236 741 0
237 -236 -801 0
-237 236 0
-237 801 0
238 -802 -235 0
-238 802 0
-238 235 0
239 -749 -706 0
-239 749 0
-239 706 0
240 -239 -32 0
-240 239 0
-240 32 0
241 -803 -238 0
-241 803 0
-241 238 0
242 -713 -7 0
-242 713 0
-242 7 0
243 -242 -723 0
-243 242 0
-243 723 0
244 -804 -241 0
-244 804 0
-244 241 0
245 -20 -13 0
-245 20 0
-245 13 0
246 -245 -732 0
-246 245 0
-246 732 0
247 -805 -244 0
-247 805 0
-247 244 0
248 -33 -735 0
-248 33 0
-248 735 0
249 -248 -714 0
-249 248 0
-249 714 0
250 -806 -247 0
-250 806 0
-250 247 0
251 -749 -21 0
-251 749 0
-251 21 0
252 -251 -36 0
-252 251 0
-252 36 0
253 -807 -250 0
-253 807 0
-253 250 0
254 -38 -22 0
-254 38 0
-254 22 0
255 -254 -24 0
-255 254 0
-255 24 0
256 -808 -253 0
-256 808 0
-256 253 0
257 -763 -15 0
-257 763 0
-257 15 0
258 -257 -46 0
-258 257 0
-258 46 0
259 -809 -256 0
-259 809 0
-259 256 0
260 -719 -780 0
-260 719 0
-260 780 0
261 -260 -749 0
-261 260 0
-261 749 0
262 -810 -259 0
-262 810 0
-262 259 0
263 -767 -740 0
-263 767 0
-263 740 0
264 -263 -727 0
-264 263 0
-264 727 0
265 -811 -262 0
-265 811 0
-265 262 0
266 -731 -704 0
-266 731 0
-266 704 0
267 -266 -42 0
-267 266 0
-267 42 0
268 -812 -265 0
-268 812 0
-268 265 0
269 -748 -24 0
-269 748 0
-269 24 0
270 -269 -36 0
-270 269 0
-270 36 0
271 -813 -268 0
-271 813 0
-271 268 0
272 -47 -763 0
-272 47 0
-272 763 0
273 -272 -46 0
-273 272 0
-273 46 0
274 -814 -271 0
-274 814 0
-274 271 0
275 -815 -34 0
-275 815 0
-275 34 0
276 -275 -720 0
-276 275 0
-276 720 0
277 -816 -274 0
-277 816 0
-277 274 0
278 -34 -758 0
-278 34 0
-278 758 0
279 -278 -752 0
-279 278 0
-279 752 0
280 -817 -277 0
-280 817 0
-280 277 0
281 -20 -711 0
-281 20 0
-281 711 0
282 -281 -49 0
-282 281 0
-282 49 0
283 -818 -280 0
-283 818 0
-283 280 0
284 -819 -7 0
-284 819 0
-284 7 0
285 -284 -815 0
-285 284 0
-285 815 0
286 -820 -283 0
-286 820 0
-286 283 0
287 -42 -699 0
-287 42 0
-287 699 0
288 -287 -2 0
-288 287 0
-288 2 0
289 -821 -286 0
-289 821 0
-289 286 0
290 -734 -25 0
-290 734 0
-290 25 0
291 -290 -41 0
-291 290 0
-291 41 0
292 -822 -289 0
-292 822 0
-292 289 0
293 -14 -6 0
-293 14 0
-293 6 0
294 -293 -723 0
-294 293 0
-294 723 0
295 -823 -292 0
-295 823 0
-295 292 0
296 -761 -18 0
-296 761 0
-296 18 0
297 -296 -815 0
-297 296 0
-297 815 0
298 -824 -295 0
-298 824 0
-298 295 0
299 -825 -7 0
-299 825 0
-299 7 0
300 -299 -9 0
-300 299 0
-300 9 0
301 -826 -298 0
-301 826 0
-301 298 0
302 -37 -761 0
-302 37 0
-302 761 0
303 -302 -752 0
-303 302 0
-303 752 0
304 -827 -301 0
-304 827 0
-304 301 0
305 -35 -731 0
-305 35 0
-305 731 0
306 -305 -6 0
-306 305 0
-306 6 0
307 -828 -304 0
-307 828 0
-307 304 0
308 -35 -33 0
-308 35 0
-308 33 0
309 -308 -748 0
-309 308 0
-309 748 0
310 -829 -307 0
-310 829 0
-310 307 0
311 -31 -24 0
-311 31 0
-311 24 0
312 -311 -830 0
-312 311 0
-312 830 0
313 -831 -310 0
-313 831 0
-313 310 0
314 -832 -741 0
-314 832 0
-314 741 0
315 -314 -49 0
-315 314 0
-315 49 0
316 -833 -313 0
-316 833 0
-316 313 0
317 -50 -815 0
-317 50 0
-317 815 0
318 -317 -714 0
-318 317 0
-318 714 0
319 -834 -316 0
-319 834 0
-319 316 0
320 -752 -704 0
-320 752 0
-320 704 0
321 -320 -24 0
-321 320 0
-321 24 0
322 -835 -319 0
-322 835 0
-322 319 0
323 -15 -713 0
-323 15 0
-323 713 0
324 -323 -749 0
-324 323 0
-324 749 0
325 -836 -322 0
-325 836 0
-325 322 0
326 -19 -706 0
-326 19 0
-326 706 0
327 -326 -23 0
-327 326 0
-327 23 0
328 -837 -325 0
-328 837 0
-328 325 0
329 -767 -759 0
-329 767 0
-329 759 0
330 -329 -749 0
-330 329 0
-330 749 0
331 -838 -328 0
-331 838 0
-331 328 0
332 -725 -4 0
-332 725 0
-332 4 0
333 -332 -714 0
-333 332 0
-333 714 0
334 -839 -331 0
-334 839 0
-334 331 0
335 -780 -706 0
-335 780 0
-335 706 0
336 -335 -737 0
-336 335 0
-336 737 0
337 -840 -334 0
-337 840 0
-337 334 0
338 -749 -741 0
-338 749 0
-338 741 0
339 -338 -819 0
-339 338 0
-339 819 0
340 -841 -337 0
-340 841 0
-340 337 0
341 -31 -26 0
-341 31 0
-341 26 0
342 -341 -815 0
-342 341 0
-342 815 0
343 -842 -340 0
-343 842 0
-343 340 0
344 -35 -31 0
-344 35 0
-344 31 0
345 -344 -9 0
-345 344 0
-345 9 0
346 -843 -343 0
-346 843 0
-346 343 0
347 -825 -19 0
-347 825 0
-347 19 0
348 -347 -49 0
-348 347 0
-348 49 0
349 -844 -346 0
-349 844 0
-349 346 0
350 -767 -37 0
-350 767 0
-350 37 0
351 -350 -39 0
-351 350 0
-351 39 0
352 -845 -349 0
-352 845 0
-352 349 0
353 -37 -5 0
-353 37 0
-353 5 0
354 -353 -755 0
-354 353 0
-354 755 0
355 -846 -352 0
-355 846 0
-355 352 0
356 -13 -7 0
-356 13 0
-356 7 0
357 -356 -49 0
-357 356 0
-357 49 0
358 -847 -355 0
-358 847 0
-358 355 0
359 -43 -13 0
-359 43 0
-359 13 0
360 -359 -49 0
-360 359 0
-360 49 0
361 -848 -358 0
-361 848 0
-361 358 0
362 -31 -17 0
-362 31 0
-362 17 0
363 -362 -18 0
-363 362 0
-363 18 0
364 -849 -361 0
-364 849 0
-364 361 0
365 -40 -10 0
-365 40 0
-365 10 0
366 -365 -24 0
-366 365 0
-366 24 0
367 -850 -364 0
-367 850 0
-367 364 0
368 -43 -7 0
-368 43 0
-368 7 0
369 -368 -729 0
-369 368 0
-369 729 0
370 -851 -367 0
-370 851 0
-370 367 0
371 -48 -7 0
-371 48 0
-371 7 0
372 -371 -790 0
-372 371 0
-372 790 0
373 -852 -370 0
-373 852 0
-373 370 0
374 -825 -711 0
-374 825 0
-374 711 0
375 -374 -720 0
-375 374 0
-375 720 0
376 -853 -373 0
-376 853 0
-376 373 0
377 -748 -1 0
-377 748 0
-377 1 0
378 -377 -819 0
-378 377 0
-378 819 0
379 -854 -376 0
-379 854 0
-379 376 0
380 -749 -711 0
-380 749 0
-380 711 0
381 -380 -801 0
-381 380 0
-381 801 0
382 -855 -379 0
-382 855 0
-382 379 0
383 -825 -748 0
-383 825 0
-383 748 0
384 -383 -783 0
-384 383 0
-384 783 0
385 -856 -382 0
-385 856 0
-385 382 0
386 -857 -9 0
-386 857 0
-386 9 0
387 -386 -20 0
-387 386 0
-387 20 0
388 -858 -385 0
-388 858 0
-388 385 0
389 -734 -9 0
-389 734 0
-389 9 0
390 -389 -24 0
-390 389 0
-390 24 0
391 -859 -388 0
-391 859 0
-391 388 0
392 -15 -4 0
-392 15 0
-392 4 0
393 -392 -720 0
-393 392 0
-393 720 0
394 -860 -391 0
-394 860 0
-394 391 0
395 -30 -25 0
-395 30 0
-395 25 0
396 -395 -2 0
-396 395 0
-396 2 0
397 -861 -394 0
-397 861 0
-397 394 0
398 -763 -825 0
-398 763 0
-398 825 0
399 -398 -737 0
-399 398 0
-399 737 0
400 -862 -397 0
-400 862 0
-400 397 0
401 -46 -37 0
-401 46 0
-401 37 0
402 -401 -49 0
-402 401 0
-402 49 0
403 -863 -400 0
-403 863 0
-403 400 0
404 -857 -5 0
-404 857 0
-404 5 0
405 -404 -23 0
-405 404 0
-405 23 0
406 -864 -403 0
-406 864 0
-406 403 0
407 -33 -19 0
-407 33 0
-407 19 0
408 -407 -24 0
-408 407 0
-408 24 0
409 -865 -406 0
-409 865 0
-409 406 0
410 -761 -33 0
-410 761 0
-410 33 0
411 -410 -832 0
-411 410 0
-411 832 0
412 -866 -409 0
-412 866 0
-412 409 0
413 -31 -12 0
-413 31 0
-413 12 0
414 -413 -13 0
-414 413 0
-414 13 0
415 -867 -412 0
-415 867 0
-415 412 0
416 -763 -727 0
-416 763 0
-416 727 0
417 -416 -741 0
-417 416 0
-417 741 0
418 -868 -415 0
-418 868 0
-418 415 0
419 -248 -825 0
-419 248 0
-419 825 0
420 -869 -418 0
-420 869 0
-420 418 0
421 -33 -759 0
-421 33 0
-421 759 0
422 -421 -41 0
-422 421 0
-422 41 0
423 -870 -420 0
-423 870 0
-423 420 0
424 -735 -758 0
-424 735 0
-424 758 0
425 -424 -18 0
-425 424 0
-425 18 0
426 -871 -423 0
-426 871 0
-426 423 0
427 -747 -1 0
-427 747 0
-427 1 0
428 -427 -700 0
-428 427 0
-428 700 0
429 -872 -426 0
-429 872 0
-429 426 0
430 -873 -701 0
-430 873 0
-430 701 0
431 -430 -744 0
-431 430 0
-431 744 0
432 -874 -429 0
-432 874 0
-432 429 0
433 -778 -27 0
-433 778 0
-433 27 0
434 -433 -740 0
-434 433 0
-434 740 0
435 -875 -432 0
-435 875 0
-435 432 0
436 -761 -12 0
-436 761 0
-436 12 0
437 -436 -47 0
-437 436 0
-437 47 0
438 -876 -435 0
-438 876 0
-438 435 0
439 -877 -10 0
-439 877 0
-439 10 0
440 -439 -28 0
-440 439 0
-440 28 0
441 -878 -438 0
-441 878 0
-441 438 0
442 -877 -825 0
-442 877 0
-442 825 0
443 -442 -699 0
-443 442 0
-443 699 0
444 -879 -441 0
-444 879 0
-444 441 0
445 -34 -26 0
-445 34 0
-445 26 0
446 -445 -45 0
-446 445 0
-446 45 0
447 -880 -444 0
-447 880 0
-447 444 0
448 -43 -734 0
-448 43 0
-448 734 0
449 -448 -45 0
-449 448 0
-449 45 0
450 -881 -447 0
-450 881 0
-450 447 0
451 -38 -772 0
-451 38 0
-451 772 0
452 -451 -32 0
-452 451 0
-452 32 0
453 -882 -450 0
-453 882 0
-453 450 0
454 -825 -10 0
-454 825 0
-454 10 0
455 -454 -39 0
-455 454 0
-455 39 0
456 -883 -453 0
-456 883 0
-456 453 0
457 -37 -758 0
-457 37 0
-457 758 0
458 -457 -47 0
-458 457 0
-458 47 0
459 -884 -456 0
-459 884 0
-459 456 0
460 -26 -780 0
-460 26 0
-460 780 0
461 -460 -700 0
-461 460 0
-461 700 0
462 -885 -459 0
-462 885 0
-462 459 0
463 -740 -755 0
-463 740 0
-463 755 0
464 -463 -24 0
-464 463 0
-464 24 0
465 -886 -462 0
-465 886 0
-465 462 0
466 -20 -7 0
-466 20 0
-466 7 0
467 -466 -41 0
-467 466 0
-467 41 0
468 -887 -465 0
-468 887 0
-468 465 0
469 -755 -699 0
-469 755 0
-469 699 0
470 -469 -788 0
-470 469 0
-470 788 0
471 -888 -468 0
-471 888 0
-471 468 0
472 -25 -783 0
-472 25 0
-472 783 0
473 -472 -46 0
-473 472 0
-473 46 0
474 -889 -471 0
-474 889 0
-474 471 0
475 -15 -11 0
-475 15 0
-475 11 0
476 -475 -815 0
-476 475 0
-476 815 0
477 -890 -474 0
-477 890 0
-477 474 0
478 -26 -701 0
-478 26 0
-478 701 0
479 -478 -13 0
-479 478 0
-479 13 0
480 -891 -477 0
-480 891 0
-480 477 0
481 -748 -780 0
-481 748 0
-481 780 0
482 -481 -9 0
-482 481 0
-482 9 0
483 -892 -480 0
-483 892 0
-483 480 0
484 -719 -701 0
-484 719 0
-484 701 0
485 -484 -744 0
-485 484 0
-485 744 0
486 -893 -483 0
-486 893 0
-486 483 0
487 -38 -727 0
-487 38 0
-487 727 0
488 -487 -23 0
-488 487 0
-488 23 0
489 -894 -486 0
-489 894 0
-489 486 0
490 -763 -832 0
-490 763 0
-490 832 0
491 -490 -744 0
-491 490 0
-491 744 0
492 -895 -489 0
-492 895 0
-492 489 0
493 -43 -29 0
-493 43 0
-493 29 0
494 -493 -12 0
-494 493 0
-494 12 0
495 -896 -492 0
-495 896 0
-495 492 0
496 -778 -5 0
-496 778 0
-496 5 0
497 -496 -873 0
-497 496 0
-497 873 0
498 -897 -495 0
-498 897 0
-498 495 0
499 -711 -758 0
-499 711 0
-499 758 0
500 -499 -34 0
-500 499 0
-500 34 0
501 -898 -498 0
-501 898 0
-501 498 0
502 -404 -744 0
-502 404 0
-502 744 0
503 -899 -501 0
-503 899 0
-503 501 0
504 -44 -25 0
-504 44 0
-504 25 0
505 -504 -770 0
-505 504 0
-505 770 0
506 -900 -503 0
-506 900 0
-506 503 0
507 -33 -704 0
-507 33 0
-507 704 0
508 -507 -42 0
-508 507 0
-508 42 0
509 -901 -506 0
-509 901 0
-509 506 0
510 -37 -11 0
-510 37 0
-510 11 0
511 -510 -16 0
-511 510 0
-511 16 0
512 -902 -509 0
-512 902 0
-512 509 0
513 -13 -701 0
-513 13 0
-513 701 0
514 -513 -770 0
-514 513 0
-514 770 0
515 -903 -512 0
-515 903 0
-515 512 0
516 -42 -772 0
-516 42 0
-516 772 0
517 -516 -744 0
-517 516 0
-517 744 0
518 -904 -515 0
-518 904 0
-518 515 0
519 -763 -778 0
-519 763 0
-519 778 0
520 -519 -23 0
-520 519 0
-520 23 0
521 -905 -518 0
-521 905 0
-521 518 0
522 -155 -38 0
-522 155 0
-522 38 0
523 -906 -521 0
-523 906 0
-523 521 0
524 -31 -14 0
-524 31 0
-524 14 0
525 -524 -49 0
-525 524 0
-525 49 0
526 -907 -523 0
-526 907 0
-526 523 0
527 -26 -11 0
-527 26 0
-527 11 0
528 -527 -732 0
-528 527 0
-528 732 0
529 -908 -526 0
-529 908 0
-529 526 0
530 -30 -21 0
-530 30 0
-530 21 0
531 -530 -36 0
-531 530 0
-531 36 0
532 -909 -529 0
-532 909 0
-532 529 0
533 -496 -732 0
-533 496 0
-533 732 0
534 -910 -532 0
-534 910 0
-534 532 0
535 -734 -4 0
-535 734 0
-535 4 0
536 -535 -15 0
-536 535 0
-536 15 0
537 -911 -534 0
-537 911 0
-537 534 0
538 -748 -783 0
-538 748 0
-538 783 0
539 -538 -45 0
-539 538 0
-539 45 0
540 -912 -537 0
-540 912 0
-540 537 0
541 -22 -8 0
-541 22 0
-541 8 0
542 -541 -747 0
-542 541 0
-542 747 0
543 -913 -540 0
-543 913 0
-543 540 0
544 -711 -706 0
-544 711 0
-544 706 0
545 -544 -720 0
-545 544 0
-545 720 0
546 -914 -543 0
-546 914 0
-546 543 0
547 -758 -4 0
-547 758 0
-547 4 0
548 -547 -34 0
-548 547 0
-548 34 0
549 -915 -546 0
-549 915 0
-549 546 0
550 -40 -825 0
-550 40 0
-550 825 0
551 -550 -16 0
-551 550 0
-551 16 0
552 -916 -549 0
-552 916 0
-552 549 0
553 -50 -34 0
-553 50 0
-553 34 0
554 -553 -700 0
-554 553 0
-554 700 0
555 -917 -552 0
-555 917 0
-555 552 0
556 -22 -5 0
-556 22 0
-556 5 0
557 -556 -1 0
-557 556 0
-557 1 0
558 -918 -555 0
-558 918 0
-558 555 0
559 -729 -772 0
-559 729 0
-559 772 0
560 -559 -24 0
-560 559 0
-560 24 0
561 -919 -558 0
-561 919 0
-561 558 0
562 -50 -30 0
-562 50 0
-562 30 0
563 -562 -19 0
-563 562 0
-563 19 0
564 -920 -561 0
-564 920 0
-564 561 0
565 -50 -759 0
-565 50 0
-565 759 0
566 -565 -24 0
-566 565 0
-566 24 0
567 -921 -564 0
-567 921 0
-567 564 0
568 -44 -22 0
-568 44 0
-568 22 0
569 -568 -49 0
-569 568 0
-569 49 0
570 -922 -567 0
-570 922 0
-570 567 0
571 -35 -727 0
-571 35 0
-571 727 0
572 -571 -9 0
-572 571 0
-572 9 0
573 -923 -570 0
-573 923 0
-573 570 0
574 -18 -1 0
-574 18 0
-574 1 0
575 -574 -788 0
-575 574 0
-575 788 0
576 -924 -573 0
-576 924 0
-576 573 0
577 -42 -741 0
-577 42 0
-577 741 0
578 -577 -788 0
-578 577 0
-578 788 0
579 -925 -576 0
-579 925 0
-579 576 0
580 -832 -713 0
-580 832 0
-580 713 0
581 -580 -741 0
-581 580 0
-581 741 0
582 -926 -579 0
-582 926 0
-582 579 0
583 -740 -706 0
-583 740 0
-583 706 0
584 -583 -713 0
-584 583 0
-584 713 0
585 -927 -582 0
-585 927 0
-585 582 0
586 -46 -801 0
-586 46 0
-586 801 0
587 -586 -830 0
-587 586 0
-587 830 0
588 -928 -585 0
-588 928 0
-588 585 0
589 -50 -758 0
-589 50 0
-589 758 0
590 -589 -770 0
-590 589 0
-590 770 0
591 -929 -588 0
-591 929 0
-591 588 0
592 -825 -27 0
-592 825 0
-592 27 0
593 -592 -832 0
-593 592 0
-593 832 0
594 -930 -591 0
-594 930 0
-594 591 0
595 -42 -725 0
-595 42 0
-595 725 0
596 -595 -22 0
-596 595 0
-596 22 0
597 -931 -594 0
-597 931 0
-597 594 0
598 -46 -737 0
-598 46 0
-598 737 0
599 -598 -770 0
-599 598 0
-599 770 0
600 -932 -597 0
-600 932 0
-600 597 0
601 -242 -23 0
-601 242 0
-601 23 0
602 -933 -600 0
-602 933 0
-602 600 0
603 -763 -24 0
-603 763 0
-603 24 0
604 -603 -32 0
-604 603 0
-604 32 0
605 -934 -602 0
-605 934 0
-605 602 0
606 -731 -10 0
-606 731 0
-606 10 0
607 -606 -801 0
-607 606 0
-607 801 0
608 -935 -605 0
-608 935 0
-608 605 0
609 -763 -767 0
-609 763 0
-609 767 0
610 -609 -38 0
-610 609 0
-610 38 0
611 -936 -608 0
-611 936 0
-611 608 0
612 -48 -29 0
-612 48 0
-612 29 0
613 -612 -815 0
-613 612 0
-613 815 0
614 -937 -611 0
-614 937 0
-614 611 0
615 -42 -706 0
-615 42 0
-615 706 0
616 -615 -26 0
-616 615 0
-616 26 0
617 -938 -614 0
-617 938 0
-617 614 0
618 -19 -752 0
-618 19 0
-618 752 0
619 -618 -46 0
-619 618 0
-619 46 0
620 -939 -617 0
-620 939 0
-620 617 0
621 -9 -1 0
-621 9 0
-621 1 0
622 -621 -2 0
-622 621 0
-622 2 0
623 -940 -620 0
-623 940 0
-623 620 0
624 -877 -33 0
-624 877 0
-624 33 0
625 -624 -47 0
-625 624 0
-625 47 0
626 -941 -623 0
-626 941 0
-626 623 0
627 -15 -1 0
-627 15 0
-627 1 0
628 -627 -46 0
-628 627 0
-628 46 0
629 -942 -626 0
-629 942 0
-629 626 0
630 -37 -748 0
-630 37 0
-630 748 0
631 -630 -16 0
-631 630 0
-631 16 0
632 -943 -629 0
-632 943 0
-632 629 0
633 -44 -698 0
-633 44 0
-633 698 0
634 -633 -45 0
-634 633 0
-634 45 0
635 -944 -632 0
-635 944 0
-635 632 0
636 -747 -725 0
-636 747 0
-636 725 0
637 -636 -873 0
-637 636 0
-637 873 0
638 -945 -635 0
-638 945 0
-638 635 0
639 -44 -18 0
-639 44 0
-639 18 0
640 -639 -36 0
-640 639 0
-640 36 0
641 -946 -638 0
-641 946 0
-641 638 0
642 -740 -741 0
-642 740 0
-642 741 0
643 -642 -815 0
-643 642 0
-643 815 0
644 -947 -641 0
-644 947 0
-644 641 0
645 -50 -17 0
-645 50 0
-645 17 0
646 -645 -755 0
-646 645 0
-646 755 0
647 -948 -644 0
-647 948 0
-647 644 0
648 -711 -6 0
-648 711 0
-648 6 0
649 -648 -698 0
-649 648 0
-649 698 0
650 -949 -647 0
-650 949 0
-650 647 0
651 -832 -731 0
-651 832 0
-651 731 0
652 -651 -49 0
-652 651 0
-652 49 0
653 -950 -650 0
-653 950 0
-653 650 0
654 -815 -5 0
-654 815 0
-654 5 0
655 -654 -3 0
-655 654 0
-655 3 0
656 -951 -653 0
-656 951 0
-656 653 0
657 -37 -14 0
-657 37 0
-657 14 0
658 -657 -19 0
-658 657 0
-658 19 0
659 -952 -656 0
-659 952 0
-659 656 0
660 -49 -12 0
-660 49 0
-660 12 0
661 -660 -32 0
-661 660 0
-661 32 0
662 -953 -659 0
-662 953 0
-662 659 0
663 -27 -17 0
-663 27 0
-663 17 0
664 -663 -46 0
-664 663 0
-664 46 0
665 -954 -662 0
-665 954 0
-665 662 0
666 -37 -35 0
-666 37 0
-666 35 0
667 -666 -729 0
-667 666 0
-667 729 0
668 -955 -665 0
-668 955 0
-668 665 0
669 -29 -4 0
-669 29 0
-669 4 0
670 -669 -16 0
-670 669 0
-670 16 0
671 -956 -668 0
-671 956 0
-671 668 0
672 -711 -772 0
-672 711 0
-672 772 0
673 -672 -747 0
-673 672 0
-673 747 0
674 -957 -671 0
-674 957 0
-674 671 0
675 -740 -714 0
-675 740 0
-675 714 0
676 -675 -45 0
-676 675 0
-676 45 0
677 -958 -674 0
-677 958 0
-677 674 0
678 -21 -4 0
-678 21 0
-678 4 0
679 -678 -49 0
-679 678 0
-679 49 0
680 -959 -677 0
-680 959 0
-680 677 0
681 -657 -22 0
-681 657 0
-681 22 0
682 -960 -680 0
-682 960 0
-682 680 0
683 -725 -741 0
-683 725 0
-683 741 0
684 -683 -23 0
-684 683 0
-684 23 0
685 -961 -682 0
-685 961 0
-685 682 0
686 -26 -5 0
-686 26 0
-686 5 0
687 -686 -819 0
-687 686 0
-687 819 0
688 -962 -685 0
-688 962 0
-688 685 0
689 -707 -5 0
-689 707 0
-689 5 0
690 -689 -755 0
-690 689 0
-690 755 0
691 -963 -688 0
-691 963 0
-691 688 0
692 -8 -701 0
-692 8 0
-692 701 0
693 -692 -780 0
-693 692 0
-693 780 0
694 -964 -691 0
-694 964 0
-694 691 0
695 -780 -8 0
-695 780 0
-695 8 0
696 -695 -755 0
-696 695 0
-696 755 0
697 -965 -694 0
-697 965 0
-697 694 0
-698 -2 0
698 2 0
-699 -1 0
699 1 0
-700 -3 0
700 3 0
-701 -4 0
701 4 0
-702 -54 0
702 54 0
-703 -52 0
703 52 0
-704 -8 0
704 8 0
-705 -57 0
705 57 0
-706 -10 0
706 10 0
-707 -7 0
707 7 0
-708 -60 0
708 60 0
-709 -63 0
709 63 0
-710 -66 0
710 66 0
-711 -15 0
711 15 0
-712 -69 0
712 69 0
-713 -9 0
713 9 0
-714 -16 0
714 16 0
-715 -72 0
715 72 0
-716 -75 0
716 75 0
-717 -78 0
717 78 0
-718 -81 0
718 81 0
-719 -22 0
719 22 0
-720 -24 0
720 24 0
-721 -84 0
721 84 0
-722 -87 0
722 87 0
-723 -26 0
723 26 0
-724 -90 0
724 90 0
-725 -27 0
725 27 0
-726 -93 0
726 93 0
-727 -30 0
727 30 0
-728 -96 0
728 96 0
-729 -17 0
729 17 0
-730 -99 0
730 99 0
-731 -31 0
731 31 0
-732 -32 0
732 32 0
-733 -102 0
733 102 0
-734 -33 0
734 33 0
-735 -29 0
735 29 0
-736 -105 0
736 105 0
-737 -36 0
737 36 0
-738 -108 0
738 108 0
-739 -111 0
739 111 0
-740 -28 0
740 28 0
-741 -19 0
741 19 0
-742 -114 0
742 114 0
-743 -117 0
743 117 0
-744 -39 0
744 39 0
-745 -120 0
745 120 0
-746 -123 0
746 123 0
-747 -40 0
747 40 0
-748 -25 0
748 25 0
-749 -41 0
749 41 0
-750 -126 0
750 126 0
-751 -129 0
751 129 0
-752 -11 0
752 11 0
-753 -132 0
753 132 0
-754 -135 0
754 135 0
-755 -18 0
755 18 0
-756 -138 0
756 138 0
-757 -141 0
757 141 0
-758 -5 0
758 5 0
-759 -6 0
759 6 0
-760 -144 0
760 144 0
-761 -34 0
761 34 0
-762 -147 0
762 147 0
-763 -44 0
763 44 0
-764 -150 0
764 150 0
-765 -153 0
765 153 0
-766 -156 0
766 156 0
-767 -42 0
767 42 0
-768 -159 0
768 159 0
-769 -162 0
769 162 0
-770 -45 0
770 45 0
-771 -165 0
771 165 0
-772 -14 0
772 14 0
-773 -168 0
773 168 0
-774 -171 0
774 171 0
-775 -174 0
775 174 0
-776 -177 0
776 177 0
-777 -180 0
777 180 0
-778 -43 0
778 43 0
-779 -183 0
779 183 0
-780 -12 0
780 12 0
-781 -186 0
781 186 0
-782 -189 0
782 189 0
-783 -20 0
783 20 0
-784 -192 0
784 192 0
-785 -195 0
785 195 0
-786 -198 0
786 198 0
-787 -201 0
787 201 0
-788 -49 0
788 49 0
-789 -204 0
789 204 0
-790 -47 0
790 47 0
-791 -207 0
791 207 0
-792 -210 0
792 210 0
-793 -213 0
793 213 0
-794 -216 0
794 216 0
-795 -219 0
795 219 0
-796 -222 0
796 222 0
-797 -225 0
797 225 0
-798 -228 0
798 228 0
-799 -231 0
799 231 0
-800 -234 0
800 234 0
-801 -23 0
801 23 0
-802 -237 0
802 237 0
-803 -240 0
803 240 0
-804 -243 0
804 243 0
-805 -246 0
805 246 0
-806 -249 0
806 249 0
-807 -252 0
807 252 0
-808 -255 0
808 255 0
-809 -258 0
809 258 0
-810 -261 0
810 261 0
-811 -264 0
811 264 0
-812 -267 0
812 267 0
-813 -270 0
813 270 0
-814 -273 0
814 273 0
-815 -46 0
815 46 0
-816 -276 0
816 276 0
-817 -279 0
817 279 0
-818 -282 0
818 282 0
-819 -21 0
819 21 0
-820 -285 0
820 285 0
-821 -288 0
821 288 0
-822 -291 0
822 291 0
-823 -294 0
823 294 0
-824 -297 0
824 297 0
-825 -35 0
825 35 0
-826 -300 0
826 300 0
-827 -303 0
827 303 0
-828 -306 0
828 306 0
-829 -309 0
829 309 0
-830 -13 0
830 13 0
-831 -312 0
831 312 0
-832 -37 0
832 37 0
-833 -315 0
833 315 0
-834 -318 0
834 318 0
-835 -321 0
835 321 0
-836 -324 0
836 324 0
-837 -327 0
837 327 0
-838 -330 0
838 330 0
-839 -333 0
839 333 0
-840 -336 0
840 336 0
-841 -339 0
841 339 0
-842 -342 0
842 342 0
-843 -345 0
843 345 0
-844 -348 0
844 348 0
-845 -351 0
845 351 0
-846 -354 0
846 354 0
-847 -357 0
847 357 0
-848 -360 0
848 360 0
-849 -363 0
849 363 0
-850 -366 0
850 366 0
-851 -369 0
851 369 0
-852 -372 0
852 372 0
-853 -375 0
853 375 0
-854 -378 0
854 378 0
-855 -381 0
855 381 0
-856 -384 0
856 384 0
-857 -48 0
857 48 0
-858 -387 0
858 387 0
-859 -390 0
859 390 0
-860 -393 0
860 393 0
-861 -396 0
861 396 0
-862 -399 0
862 399 0
-863 -402 0
863 402 0
-864 -405 0
864 405 0
-865 -408 0
865 408 0
-866 -411 0
866 411 0
-867 -414 0
867 414 0
-868 -417 0
868 417 0
-869 -419 0
869 419 0
-870 -422 0
870 422 0
-871 -425 0
871 425 0
-872 -428 0
872 428 0
-873 -38 0
873 38 0
-874 -431 0
874 431 0
-875 -434 0
875 434 0
-876 -437 0
876 437 0
-877 -50 0
877 50 0
-878 -440 0
878 440 0
-879 -443 0
879 443 0
-880 -446 0
880 446 0
-881 -449 0
881 449 0
-882 -452 0
882 452 0
-883 -455 0
883 455 0
-884 -458 0
884 458 0
-885 -461 0
885 461 0
-886 -464 0
886 464 0
-887 -467 0
887 467 0
-888 -470 0
888 470 0
-889 -473 0
889 473 0
-890 -476 0
890 476 0
-891 -479 0
891 479 0
-892 -482 0
892 482 0
-893 -485 0
893 485 0
-894 -488 0
894 488 0
-895 -491 0
895 491 0
-896 -494 0
896 494 0
-897 -497 0
897 497 0
-898 -500 0
898 500 0
-899 -502 0
899 502 0
-900 -505 0
900 505 0
-901 -508 0
901 508 0
-902 -511 0
902 511 0
-903 -514 0
903 514 0
-904 -517 0
904 517 0
-905 -520 0
905 520 0
-906 -522 0
906 522 0
-907 -525 0
907 525 0
-908 -528 0
908 528 0
-909 -531 0
909 531 0
-910 -533 0
910 533 0
-911 -536 0
911 536 0
-912 -539 0
912 539 0
-913 -542 0
913 542 0
-914 -545 0
914 545 0
-915 -548 0
915 548 0
-916 -551 0
916 551 0
-917 -554 0
917 554 0
-918 -557 0
918 557 0
-919 -560 0
919 560 0
-920 -563 0
920 563 0
-921 -566 0
921 566 0
-922 -569 0
922 569 0
-923 -572 0
923 572 0
-924 -575 0
924 575 0
-925 -578 0
925 578 0
-926 -581 0
926 581 0
-927 -584 0
927 584 0
-928 -587 0
928 587 0
-929 -590 0
929 590 0
-930 -593 0
930 593 0
-931 -596 0
931 596 0
-932 -599 0
932 599 0
-933 -601 0
933 601 0
-934 -604 0
934 604 0
-935 -607 0
935 607 0
-936 -610 0
936 610 0
-937 -613 0
937 613 0
-938 -616 0
938 616 0
-939 -619 0
939 619 0
-940 -622 0
940 622 0
-941 -625 0
941 625 0
-942 -628 0
942 628 0
-943 -631 0
943 631 0
-944 -634 0
944 634 0
-945 -637 0
945 637 0
-946 -640 0
946 640 0
-947 -643 0
947 643 0
-948 -646 0
948 646 0
-949 -649 0
949 649 0
-950 -652 0
950 652 0
-951 -655 0
951 655 0
-952 -658 0
952 658 0
-953 -661 0
953 661 0
-954 -664 0
954 664 0
-955 -667 0
955 667 0
-956 -670 0
956 670 0
-957 -673 0
957 673 0
-958 -676 0
958 676 0
-959 -679 0
959 679 0
-960 -681 0
960 681 0
-961 -684 0
961 684 0
-962 -687 0
962 687 0
-963 -690 0
963 690 0
-964 -693 0
964 693 0
-965 -696 0
965 696 0
697 0
